[[51, 12, 33, 43, 4, 25, 6, 5, 15, 24, 48, 38, 40, 39, 37, 46, 44, 34, 35, 36, 49, 22, 32, 45, 19, 10, 9, 8, 41], [3, 18, 31, 21, 17, 42, 7, 2, 30, 23, 20, 50, 29, 16, 47, 26, 28, 27, 13, 14, 52, 11]]